%%MatrixMarket matrix coordinate pattern symmetric
% South Sudan road network (layout only, no road conditions), map 2025-12-24, with intermediate towns read from the map
172 172 203
7 1
101 1
28 2
145 2
7 3
99 3
52 4
119 4
129 4
137 5
10 6
140 6
145 6
91 7
156 7
131 8
39 9
55 9
80 9
14 10
17 11
162 11
17 12
43 12
21 13
65 13
112 13
94 14
170 14
107 15
149 15
41 16
140 16
118 17
157 17
103 18
170 18
34 19
105 19
132 19
24 20
84 20
88 21
30 22
45 22
66 22
114 22
63 23
72 23
73 23
97 23
138 23
39 24
42 24
134 24
48 25
60 25
141 26
60 27
77 28
141 29
163 29
31 30
45 30
57 31
66 31
109 32
122 32
150 32
45 33
67 33
128 34
139 34
109 35
71 36
113 36
123 36
96 37
107 37
132 38
84 39
92 39
133 39
172 39
41 40
85 41
116 41
90 42
70 43
165 43
59 44
95 44
141 44
67 45
104 45
53 46
81 46
92 47
135 47
49 48
154 48
74 50
59 51
141 51
83 52
56 53
74 53
75 53
90 53
126 53
143 53
151 53
101 54
144 54
161 55
155 57
157 58
163 58
63 60
111 60
124 61
132 61
70 62
152 62
127 64
119 65
89 66
101 66
131 66
144 66
104 67
121 68
129 68
84 69
111 72
97 73
159 73
154 74
167 75
81 76
154 76
153 77
106 78
117 78
137 79
146 79
135 80
107 82
143 82
139 84
93 85
100 85
154 86
98 87
125 87
121 88
101 91
134 92
145 93
108 94
118 95
166 96
119 98
158 98
165 99
146 100
155 101
129 102
151 103
146 104
132 106
136 106
160 106
172 106
168 107
164 108
168 108
111 110
126 115
124 117
148 120
170 120
147 122
127 123
133 128
172 128
142 129
131 130
144 130
169 131
172 132
139 133
159 135
172 136
164 145
166 147
151 149
163 150
163 152
163 153
165 156
161 160
171 162
