1 7
1 101
2 28
2 145
3 7
3 99
4 52
4 119
4 129
5 137
6 10
6 140
6 145
7 91
7 156
8 131
9 39
9 55
9 80
10 14
11 17
11 162
12 17
12 43
13 21
13 65
13 112
14 94
14 170
15 107
15 149
16 41
16 140
17 118
17 157
18 103
18 170
19 34
19 105
19 132
20 24
20 84
21 88
22 30
22 45
22 66
22 114
23 63
23 72
23 73
23 97
23 138
24 39
24 42
24 134
25 48
25 60
26 141
27 60
28 77
29 141
29 163
30 31
30 45
31 57
31 66
32 109
32 122
32 150
33 45
33 67
34 128
34 139
35 109
36 71
36 113
36 123
37 96
37 107
38 132
39 84
39 92
39 133
39 172
40 41
41 85
41 116
42 90
43 70
43 165
44 59
44 95
44 141
45 67
45 104
46 53
46 81
47 92
47 135
48 49
48 154
50 74
51 59
51 141
52 83
53 56
53 74
53 75
53 90
53 126
53 143
53 151
54 101
54 144
55 161
57 155
58 157
58 163
60 63
60 111
61 124
61 132
62 70
62 152
64 127
65 119
66 89
66 101
66 131
66 144
67 104
68 121
68 129
69 84
72 111
73 97
73 159
74 154
75 167
76 81
76 154
77 153
78 106
78 117
79 137
79 146
80 135
82 107
82 143
84 139
85 93
85 100
86 154
87 98
87 125
88 121
91 101
92 134
93 145
94 108
95 118
96 166
98 119
98 158
99 165
100 146
101 155
102 129
103 151
104 146
106 132
106 136
106 160
106 172
107 168
108 164
108 168
110 111
115 126
117 124
120 148
120 170
122 147
123 127
128 133
128 172
129 142
130 131
130 144
131 169
132 172
133 139
135 159
136 172
145 164
147 166
149 151
150 163
152 163
153 163
156 165
160 161
162 171
