1 2 3
1 82 1
1 127 3
2 134 2
3 41 1
3 80 3
3 103 1
4 111 2
5 13 2
6 74 3
7 105 1
8 31 3
8 44 3
8 65 3
9 14 1
10 14 2
10 34 2
11 17 3
11 51 3
11 92 3
12 77 2
12 89 2
12 117 2
12 138 2
13 68 3
14 35 2
14 132 1
14 139 3
15 28 3
15 86 3
15 106 3
16 20 2
16 67 3
17 71 3
18 25 3
18 36 2
18 52 3
18 94 3
19 58 3
19 59 3
19 79 3
19 112 3
20 31 3
20 33 3
20 108 3
21 114 1
22 47 1
23 76 3
24 114 2
24 132 2
25 36 3
26 29 1
27 36 3
27 53 3
28 67 3
28 102 3
30 106 3
31 67 3
31 75 3
31 107 3
31 140 3
32 96 3
33 73 1
34 56 2
34 134 2
35 46 2
35 114 3
36 53 3
36 85 3
37 75 3
37 109 3
38 39 1
40 60 2
41 66 1
42 45 1
42 60 3
42 61 1
42 73 1
42 88 1
42 95 1
42 122 3
42 125 2
43 82 3
43 116 1
44 131 3
46 114 2
47 49 2
47 91 1
47 125 2
48 99 3
48 106 3
50 101 3
51 98 3
52 72 1
52 82 1
52 105 1
52 116 1
52 126 3
53 85 3
54 71 3
54 103 3
55 67 3
56 123 2
57 93 3
58 91 2
59 79 3
59 129 3
60 125 2
61 136 1
62 117 1
62 124 1
63 87 3
63 97 3
64 85 2
64 111 2
65 109 3
69 125 1
70 80 3
70 100 3
74 82 3
75 108 3
76 117 3
78 88 1
78 135 1
80 128 3
81 118 1
82 126 3
83 103 1
84 122 2
84 138 2
85 118 1
87 106 3
87 110 3
87 130 3
87 131 3
87 140 3
88 89 1
88 120 1
89 133 1
90 91 1
97 99 3
102 107 3
102 140 3
103 115 1
104 105 1
104 116 1
105 137 1
106 140 3
107 113 3
109 129 3
110 140 3
117 133 1
119 138 2
120 122 1
121 132 2
121 135 1
123 132 2
124 132 1
127 134 3
130 131 3
