%%MatrixMarket matrix coordinate integer symmetric
% South Sudan road network, map 2025-12-24; weight = condition + 1 (1 passable, 2 partially passable, 3 impassable)
140 140 160
2 1 3
82 1 1
127 1 3
134 2 2
41 3 1
80 3 3
103 3 1
111 4 2
13 5 2
74 6 3
105 7 1
31 8 3
44 8 3
65 8 3
14 9 1
14 10 2
34 10 2
17 11 3
51 11 3
92 11 3
77 12 2
89 12 2
117 12 2
138 12 2
68 13 3
35 14 2
132 14 1
139 14 3
28 15 3
86 15 3
106 15 3
20 16 2
67 16 3
71 17 3
25 18 3
36 18 2
52 18 3
94 18 3
58 19 3
59 19 3
79 19 3
112 19 3
31 20 3
33 20 3
108 20 3
114 21 1
47 22 1
76 23 3
114 24 2
132 24 2
36 25 3
29 26 1
36 27 3
53 27 3
67 28 3
102 28 3
106 30 3
67 31 3
75 31 3
107 31 3
140 31 3
96 32 3
73 33 1
56 34 2
134 34 2
46 35 2
114 35 3
53 36 3
85 36 3
75 37 3
109 37 3
39 38 1
60 40 2
66 41 1
45 42 1
60 42 3
61 42 1
73 42 1
88 42 1
95 42 1
122 42 3
125 42 2
82 43 3
116 43 1
131 44 3
114 46 2
49 47 2
91 47 1
125 47 2
99 48 3
106 48 3
101 50 3
98 51 3
72 52 1
82 52 1
105 52 1
116 52 1
126 52 3
85 53 3
71 54 3
103 54 3
67 55 3
123 56 2
93 57 3
91 58 2
79 59 3
129 59 3
125 60 2
136 61 1
117 62 1
124 62 1
87 63 3
97 63 3
85 64 2
111 64 2
109 65 3
125 69 1
80 70 3
100 70 3
82 74 3
108 75 3
117 76 3
88 78 1
135 78 1
128 80 3
118 81 1
126 82 3
103 83 1
122 84 2
138 84 2
118 85 1
106 87 3
110 87 3
130 87 3
131 87 3
140 87 3
89 88 1
120 88 1
133 89 1
91 90 1
99 97 3
107 102 3
140 102 3
115 103 1
105 104 1
116 104 1
137 105 1
140 106 3
113 107 3
129 109 3
140 110 3
133 117 1
138 119 2
122 120 1
132 121 2
135 121 1
132 123 2
132 124 1
134 127 3
131 130 3
